[2026-03-24T00:35:51.956Z] Pipeline "set_prova_set_prova_set_s000_g001" → 2026_03_24_00_35_51_set_prova_set_prova_set_s000_g001_max.sol
Set parameter WLSAccessID
Set parameter WLSSecret
Set parameter LicenseID to value 2792458
Set parameter LogFile to value "gurobi.log"
Using license file /root/gurobi.lic
Academic license 2792458 - for non-commercial use only - registered to an___@studenti.unipg.it

Gurobi Optimizer version 13.0.1 build v13.0.1rc0 (linux64 - "Ubuntu 24.04.4 LTS")
Copyright (c) 2026, Gurobi Optimization, LLC

Warning: Duplicate section found (read 'binary') - Is a variable name equal to an LP file format keyword?
Warning: Duplicate section found (read 'binary') - Is a variable name equal to an LP file format keyword?
Warning: Duplicate section found (read 'binary') - Is a variable name equal to an LP file format keyword?
Warning: Duplicate section found (read 'binary') - Is a variable name equal to an LP file format keyword?
Warning: Duplicate section found (read 'binary') - Is a variable name equal to an LP file format keyword?
Warning: Duplicate section found (read 'binary') - Is a variable name equal to an LP file format keyword?
Warning: Duplicate section found (read 'binary') - Is a variable name equal to an LP file format keyword?
Warning: Duplicate section found (read 'binary') - Is a variable name equal to an LP file format keyword?
Warning: Duplicate section found (read 'binary') - Is a variable name equal to an LP file format keyword?
Warning: Duplicate section found (read 'binary') - Is a variable name equal to an LP file format keyword?
Warning: Further warnings of this type will be omitted.
Read LP format model from file /root/bgw/data/uploads/2026_03_24_00_35_51_set_prova_set_prova_set_s000_g001_max.lp
Reading time = 0.00 seconds
: 1014 rows, 166 columns, 2666 nonzeros

Using Gurobi shared library /opt/gurobi1301/linux64/lib/libgurobi.so.13.0.1

CPU model: AMD EPYC-Genoa Processor, instruction set [SSE2|AVX|AVX2|AVX512]
Thread count: 16 physical cores, 16 logical processors, using up to 16 threads

Academic license 2792458 - for non-commercial use only - registered to an___@studenti.unipg.it
Optimize a model with 1014 rows, 166 columns and 2666 nonzeros (Max)
Model fingerprint: 0x93c65783
Model has 30 linear objective coefficients
Variable types: 42 continuous, 124 integer (124 binary)
Coefficient statistics:
  Matrix range     [1e+00, 1e+01]
  Objective range  [1e+00, 1e+00]
  Bounds range     [1e+00, 1e+00]
  RHS range        [1e+00, 1e+01]

Found heuristic solution: objective 30.0000000
Presolve removed 507 rows and 61 columns
Presolve time: 0.01s
Presolved: 507 rows, 105 columns, 1620 nonzeros
Variable types: 0 continuous, 105 integer (94 binary)
Found heuristic solution: objective 55.0000000

Root relaxation: objective 1.380000e+02, 112 iterations, 0.00 seconds (0.00 work units)

    Nodes    |    Current Node    |     Objective Bounds      |     Work
 Expl Unexpl |  Obj  Depth IntInf | Incumbent    BestBd   Gap | It/Node Time

     0     0  138.00000    0   63   55.00000  138.00000   151%     -    0s
H    0     0                      62.0000000  138.00000   123%     -    0s
H    0     0                      67.0000000  138.00000   106%     -    0s
H    0     0                      68.0000000  138.00000   103%     -    0s
     0     0  138.00000    0   63   68.00000  138.00000   103%     -    0s
H    0     0                      70.0000000  138.00000  97.1%     -    0s
     0     0  138.00000    0   62   70.00000  138.00000  97.1%     -    0s
     0     0  138.00000    0   62   70.00000  138.00000  97.1%     -    0s
     0     0  138.00000    0   62   70.00000  138.00000  97.1%     -    0s
     0     0  138.00000    0   62   70.00000  138.00000  97.1%     -    0s
     0     0  138.00000    0   51   70.00000  138.00000  97.1%     -    0s
H    0     0                      71.0000000  138.00000  94.4%     -    0s
H    0     0                      72.0000000  138.00000  91.7%     -    0s
H    0     0                      73.0000000  138.00000  89.0%     -    0s
     0     0  138.00000    0   64   73.00000  138.00000  89.0%     -    0s
     0     0  138.00000    0   51   73.00000  138.00000  89.0%     -    0s
     0     0  138.00000    0   63   73.00000  138.00000  89.0%     -    0s
     0     0  138.00000    0   61   73.00000  138.00000  89.0%     -    0s
     0     0  138.00000    0   62   73.00000  138.00000  89.0%     -    0s
     0     0  138.00000    0   62   73.00000  138.00000  89.0%     -    0s
     0     0  138.00000    0   62   73.00000  138.00000  89.0%     -    0s
     0     0  138.00000    0   62   73.00000  138.00000  89.0%     -    0s
     0     0  138.00000    0   62   73.00000  138.00000  89.0%     -    0s
     0     0  138.00000    0   62   73.00000  138.00000  89.0%     -    0s
     0     2  138.00000    0   61   73.00000  138.00000  89.0%     -    0s
H 5719  2131                      74.0000000  131.10000  77.2%  26.0    1s
 75438 15743   92.88000   33   61   74.00000   93.82000  26.8%  20.0    5s
 180184 18283   82.60000   37   51   74.00000   85.10000  15.0%  19.0   10s

Cutting planes:
  Inf proof: 2

Explored 273732 nodes (5242912 simplex iterations) in 14.41 seconds (18.93 work units)
Thread count was 16 (of 16 available processors)

Solution count 10: 74 73 72 ... 30

Optimal solution found (tolerance 1.00e-04)
Best objective 7.400000000000e+01, best bound 7.400000000000e+01, gap 0.0000%

Wrote result file '/root/bgw/data/results/2026_03_24_00_35_51_set_prova_set_prova_set_s000_g001_max.sol'

